p cnf 255 595
c x0 -> 44
c x1 -> 67
c x2 -> 68
c x3 -> 106
c x4 -> 158
c x5 -> 113
c x6 -> 154
c x7 -> 195
c x8 -> 228
c x9 -> 229
2 3 -1 0
-2 -3 -1 0
2 -3 1 0
-2 3 1 0
4 -2 0
5 -2 0
-4 -5 2 0
6 -3 0
7 -3 0
-6 -7 3 0
8 4 0
-8 -4 0
9 -5 0
10 -5 0
-9 -10 5 0
11 6 0
-11 -6 0
12 -7 0
13 -7 0
-12 -13 7 0
14 -8 0
15 -8 0
-14 -15 8 0
16 9 0
-16 -9 0
17 -10 0
18 -10 0
-17 -18 10 0
19 -11 0
20 -11 0
-19 -20 11 0
21 12 0
-21 -12 0
22 -13 0
23 -13 0
-22 -23 13 0
24 14 0
-24 -14 0
25 15 0
-25 -15 0
26 -16 0
27 -16 0
-26 -27 16 0
28 -17 0
29 -17 0
-28 -29 17 0
30 -18 0
31 -18 0
-30 -31 18 0
32 19 0
-32 -19 0
33 20 0
-33 -20 0
34 -21 0
35 -21 0
-34 -35 21 0
36 -22 0
37 -22 0
-36 -37 22 0
38 -23 0
39 -23 0
-38 -39 23 0
40 -24 0
41 -24 0
-40 -41 24 0
42 -25 0
43 -25 0
-42 -43 25 0
44 -26 0
45 -26 0
-44 -45 26 0
46 27 0
-46 -27 0
47 28 0
-47 -28 0
48 29 0
-48 -29 0
49 30 0
-49 -30 0
50 31 0
-50 -31 0
51 -32 0
52 -32 0
-51 -52 32 0
53 -33 0
54 -33 0
-53 -54 33 0
44 -34 0
56 -34 0
-44 -56 34 0
57 35 0
-57 -35 0
58 36 0
-58 -36 0
59 37 0
-59 -37 0
60 38 0
-60 -38 0
61 39 0
-61 -39 0
62 40 0
-62 -40 0
63 41 0
-63 -41 0
64 42 0
-64 -42 0
65 -43 0
66 -43 0
-65 -66 43 0
67 -45 0
68 -45 0
-67 -68 45 0
69 -46 0
70 -46 0
-69 -70 46 0
71 -47 0
72 -47 0
-71 -72 47 0
73 -48 0
74 -48 0
-73 -74 48 0
75 -49 0
76 -49 0
-75 -76 49 0
77 -50 0
78 -50 0
-77 -78 50 0
79 51 0
-79 -51 0
80 52 0
-80 -52 0
81 53 0
-81 -53 0
82 -54 0
83 -54 0
-82 -83 54 0
67 -56 0
68 -56 0
-67 -68 56 0
86 -57 0
87 -57 0
-86 -87 57 0
88 -58 0
89 -58 0
-88 -89 58 0
90 -59 0
91 -59 0
-90 -91 59 0
92 -60 0
93 -60 0
-92 -93 60 0
94 -61 0
95 -61 0
-94 -95 61 0
96 -62 0
97 -62 0
-96 -97 62 0
98 -63 0
99 -63 0
-98 -99 63 0
100 -64 0
101 -64 0
-100 -101 64 0
102 65 0
-102 -65 0
103 66 0
-103 -66 0
104 69 0
-104 -69 0
105 70 0
-105 -70 0
106 71 0
-106 -71 0
102 -72 0
107 -72 0
-102 -107 72 0
108 73 0
-108 -73 0
109 -74 0
110 -74 0
-109 -110 74 0
26 75 0
-26 -75 0
111 -76 0
112 -76 0
-111 -112 76 0
113 -77 0
114 -77 0
-113 -114 77 0
115 -78 0
116 -78 0
-115 -116 78 0
117 -79 0
118 -79 0
-117 -118 79 0
119 -80 0
120 -80 0
-119 -120 80 0
121 -81 0
122 -81 0
-121 -122 81 0
123 82 0
-123 -82 0
124 83 0
-124 -83 0
125 86 0
-125 -86 0
126 87 0
-126 -87 0
106 88 0
-106 -88 0
123 -89 0
128 -89 0
-123 -128 89 0
129 90 0
-129 -90 0
130 -91 0
131 -91 0
-130 -131 91 0
34 92 0
-34 -92 0
132 -93 0
133 -93 0
-132 -133 93 0
113 -94 0
135 -94 0
-113 -135 94 0
136 -95 0
137 -95 0
-136 -137 95 0
138 96 0
-138 -96 0
115 97 0
-115 -97 0
44 98 0
-44 -98 0
139 99 0
-139 -99 0
140 100 0
-140 -100 0
141 -101 0
142 -101 0
-141 -142 101 0
143 -102 0
144 -102 0
-143 -144 102 0
145 -103 0
146 -103 0
-145 -146 103 0
147 -104 0
77 -104 0
-147 -77 104 0
140 -105 0
148 -105 0
-140 -148 105 0
141 -107 0
145 -107 0
-141 -145 107 0
140 -108 0
149 -108 0
-140 -149 108 0
71 -109 0
150 -109 0
-71 -150 109 0
98 -110 0
151 -110 0
-98 -151 110 0
152 111 0
-152 -111 0
153 112 0
-153 -112 0
154 -114 0
155 -114 0
-154 -155 114 0
156 -115 0
157 -115 0
-156 -157 115 0
106 -116 0
158 -116 0
-106 -158 116 0
159 117 0
-159 -117 0
136 118 0
-136 -118 0
44 119 0
-44 -119 0
160 120 0
-160 -120 0
161 121 0
-161 -121 0
162 -122 0
163 -122 0
-162 -163 122 0
164 -123 0
165 -123 0
-164 -165 123 0
166 -124 0
167 -124 0
-166 -167 124 0
168 -125 0
94 -125 0
-168 -94 125 0
161 -126 0
169 -126 0
-161 -169 126 0
162 -128 0
166 -128 0
-162 -166 128 0
161 -129 0
170 -129 0
-161 -170 129 0
88 -130 0
171 -130 0
-88 -171 130 0
119 -131 0
172 -131 0
-119 -172 131 0
173 132 0
-173 -132 0
174 133 0
-174 -133 0
154 -135 0
176 -135 0
-154 -176 135 0
177 -136 0
178 -136 0
-177 -178 136 0
106 -137 0
158 -137 0
-106 -158 137 0
106 -138 0
152 -138 0
-106 -152 138 0
156 -139 0
28 -139 0
-156 -28 139 0
180 -140 0
181 -140 0
-180 -181 140 0
158 141 0
-158 -141 0
182 142 0
-182 -142 0
154 143 0
-154 -143 0
183 -144 0
184 -144 0
-183 -184 144 0
113 145 0
-113 -145 0
185 -146 0
186 -146 0
-185 -186 146 0
109 147 0
-109 -147 0
187 -148 0
116 -148 0
-187 -116 148 0
188 149 0
-188 -149 0
189 150 0
-189 -150 0
190 -151 0
191 -151 0
-190 -191 151 0
192 -152 0
193 -152 0
-192 -193 152 0
106 -153 0
194 -153 0
-106 -194 153 0
195 -155 0
196 -155 0
-195 -196 155 0
151 156 0
-151 -156 0
197 157 0
-197 -157 0
106 -159 0
173 -159 0
-106 -173 159 0
177 -160 0
36 -160 0
-177 -36 160 0
198 -161 0
199 -161 0
-198 -199 161 0
158 162 0
-158 -162 0
200 163 0
-200 -163 0
154 164 0
-154 -164 0
201 -165 0
202 -165 0
-201 -202 165 0
113 166 0
-113 -166 0
203 -167 0
204 -167 0
-203 -204 167 0
130 168 0
-130 -168 0
205 -169 0
137 -169 0
-205 -137 169 0
206 170 0
-206 -170 0
207 171 0
-207 -171 0
208 -172 0
209 -172 0
-208 -209 172 0
210 -173 0
211 -173 0
-210 -211 173 0
106 -174 0
212 -174 0
-106 -212 174 0
195 -176 0
214 -176 0
-195 -214 176 0
172 177 0
-172 -177 0
215 178 0
-215 -178 0
185 180 0
-185 -180 0
216 181 0
-216 -181 0
113 -182 0
217 -182 0
-113 -217 182 0
195 183 0
-195 -183 0
218 -184 0
219 -184 0
-218 -219 184 0
220 -185 0
221 -185 0
-220 -221 185 0
222 186 0
-222 -186 0
223 187 0
-223 -187 0
107 -188 0
224 -188 0
-107 -224 188 0
225 -189 0
217 -189 0
-225 -217 189 0
67 190 0
-67 -190 0
68 191 0
-68 -191 0
226 192 0
-226 -192 0
227 193 0
-227 -193 0
72 194 0
-72 -194 0
228 -196 0
229 -196 0
-228 -229 196 0
98 -197 0
230 -197 0
-98 -230 197 0
203 198 0
-203 -198 0
231 199 0
-231 -199 0
113 -200 0
232 -200 0
-113 -232 200 0
195 201 0
-195 -201 0
233 -202 0
234 -202 0
-233 -234 202 0
235 -203 0
236 -203 0
-235 -236 203 0
237 204 0
-237 -204 0
238 205 0
-238 -205 0
128 -206 0
239 -206 0
-128 -239 206 0
240 -207 0
232 -207 0
-240 -232 207 0
67 208 0
-67 -208 0
68 209 0
-68 -209 0
241 210 0
-241 -210 0
242 211 0
-242 -211 0
89 212 0
-89 -212 0
228 -214 0
229 -214 0
-228 -229 214 0
119 -215 0
245 -215 0
-119 -245 215 0
143 -216 0
246 -216 0
-143 -246 216 0
146 217 0
-146 -217 0
228 218 0
-228 -218 0
229 219 0
-229 -219 0
196 220 0
-196 -220 0
247 221 0
-247 -221 0
154 -222 0
248 -222 0
-154 -248 222 0
145 -223 0
224 -223 0
-145 -224 223 0
114 224 0
-114 -224 0
158 -225 0
113 -225 0
-158 -113 225 0
102 -226 0
249 -226 0
-102 -249 226 0
141 -227 0
103 -227 0
-141 -103 227 0
45 230 0
-45 -230 0
164 -231 0
250 -231 0
-164 -250 231 0
167 232 0
-167 -232 0
228 233 0
-228 -233 0
229 234 0
-229 -234 0
214 235 0
-214 -235 0
251 236 0
-251 -236 0
154 -237 0
252 -237 0
-154 -252 237 0
166 -238 0
239 -238 0
-166 -239 238 0
135 239 0
-135 -239 0
158 -240 0
113 -240 0
-158 -113 240 0
123 -241 0
253 -241 0
-123 -253 241 0
162 -242 0
124 -242 0
-162 -124 242 0
56 245 0
-56 -245 0
155 246 0
-155 -246 0
195 -247 0
254 -247 0
-195 -254 247 0
144 248 0
-144 -248 0
225 249 0
-225 -249 0
176 250 0
-176 -250 0
195 -251 0
255 -251 0
-195 -255 251 0
165 252 0
-165 -252 0
240 253 0
-240 -253 0
184 254 0
-184 -254 0
202 255 0
-202 -255 0
1 0
